NAME: test1920
TYPE: TSP
DIMENSION: 11
EDGE_WEIGHT_TYPE: EUC_2D
NODE_COORD_SECTION
1 79.39054749983852 67.16741169783491
2 96.08667179787241 56.26663211774928
3 68.82348161541842 11.848012813153364
4 17.53417134802888 54.49911511004978
5 83.33307999716988 8.47686272004311
6 37.14435748206883 79.67234699405613
7 81.03809828738758 5.061648264261532
8 66.59862342500769 95.51802566302725
9 31.555404031146427 97.22639526841604
10 25.947205322984868 86.09124779951078
11 13.826867950012344 0.1412793700349857
EOF
